88
205.0 262.0 
220.0 267.0 
210.0 254.0 
220.0 248.0 
220.0 267.0 
205.0 262.0 
210.0 254.0 
220.0 248.0 
205.0 262.0 
220.0 267.0 
210.0 254.0 
220.0 248.0 
220.0 267.0 
205.0 262.0 
210.0 254.0 
220.0 248.0 
205.0 262.0 
220.0 267.0 
210.0 254.0 
220.0 248.0 
205.0 262.0 
220.0 267.0 
210.0 254.0 
220.0 248.0 
205.0 262.0 
220.0 267.0 
210.0 254.0 
220.0 248.0 
205.0 262.0 
220.0 267.0 
210.0 254.0 
220.0 248.0 
220.0 267.0 
205.0 262.0 
210.0 254.0 
220.0 248.0 
220.0 267.0 
205.0 262.0 
210.0 254.0 
220.0 248.0 
220.0 267.0 
205.0 262.0 
205.0 262.0 
210.0 254.0 
220.0 248.0 
220.0 267.0 
205.0 262.0 
205.0 262.0 
210.0 254.0 
220.0 248.0 
205.0 262.0 
220.0 267.0 
205.0 262.0 
205.0 250.0 
215.0 233.0 
210.0 242.0 
220.0 267.0 
205.0 262.0 
205.0 262.0 
210.0 254.0 
220.0 248.0 
220.0 267.0 
205.0 262.0 
205.0 262.0 
210.0 254.0 
220.0 267.0 
205.0 262.0 
205.0 262.0 
210.0 254.0 
220.0 248.0 
220.0 267.0 
205.0 262.0 
205.0 262.0 
210.0 254.0 
220.0 267.0 
205.0 262.0 
205.0 262.0 
210.0 254.0 
220.0 267.0 
205.0 262.0 
205.0 262.0 
210.0 254.0 
220.0 248.0 
220.0 267.0 
205.0 262.0 
205.0 262.0 
210.0 254.0 
220.0 248.0 

0 18 19 26 30 25 24 22 21 20 11 10 9 8 7 1 2 6 12 5 4 3 14 17 31 
0 27 28 16 14 13 3 4 5 6 2 1 7 8 9 10 11 20 21 22 25 30 26 19 18 31 
0 18 19 26 30 25 24 22 21 20 11 10 9 8 7 1 2 6 5 4 3 14 16 17 31 
0 27 28 16 15 14 13 3 4 6 2 1 7 8 9 10 11 20 21 22 25 30 19 18 31 
0 27 28 16 14 13 3 4 5 6 2 1 7 8 9 10 11 20 21 22 25 30 26 19 18 31 
0 18 19 26 30 25 24 22 21 20 11 10 9 8 7 1 2 6 12 5 4 3 14 17 31 
0 18 19 26 30 25 24 22 21 20 11 10 9 8 7 1 2 6 5 4 3 14 16 17 31 
0 27 28 16 15 14 13 3 4 6 2 1 7 8 9 10 11 20 21 22 25 30 19 18 31 
0 18 19 26 30 25 24 22 21 20 11 10 9 8 7 1 2 6 12 5 4 3 14 17 31 
0 27 28 16 14 13 3 4 5 6 2 1 7 8 9 10 11 20 21 22 25 30 26 19 18 31 
0 18 19 26 30 25 24 22 21 20 11 10 9 8 7 1 2 6 5 4 3 14 16 17 31 
0 27 28 16 15 14 13 3 4 6 2 1 7 8 9 10 11 20 21 22 25 30 19 18 31 
0 27 28 16 14 13 3 4 5 6 2 1 7 8 9 10 11 20 21 22 25 30 26 19 18 31 
0 18 19 26 30 25 24 22 21 20 11 10 9 8 7 1 2 6 12 5 4 3 14 17 31 
0 18 19 26 30 25 24 22 21 20 11 10 9 8 7 1 2 6 5 4 3 14 16 17 31 
0 27 28 16 15 14 13 3 4 6 2 1 7 8 9 10 11 20 21 22 25 30 19 18 31 
0 18 19 26 30 25 24 22 21 20 11 10 9 8 7 1 2 6 12 5 4 3 14 17 31 
0 27 28 16 14 13 3 4 5 6 2 1 7 8 9 10 11 20 21 22 25 30 26 19 18 31 
0 18 19 26 30 25 24 22 21 20 11 10 9 8 7 1 2 6 5 4 3 14 16 17 31 
0 27 28 16 15 14 13 3 4 6 2 1 7 8 9 10 11 20 21 22 25 30 19 18 31 
0 18 19 26 30 25 24 22 21 20 11 10 9 8 7 1 2 6 12 5 4 3 14 17 31 
0 27 28 16 14 13 3 4 5 6 2 1 7 8 9 10 11 20 21 22 25 30 26 19 18 31 
0 18 19 26 30 25 24 22 21 20 11 10 9 8 7 1 2 6 5 4 3 14 16 17 31 
0 27 28 16 15 14 13 3 4 6 2 1 7 8 9 10 11 20 21 22 25 30 19 18 31 
0 18 19 26 30 25 24 22 21 20 11 10 9 8 7 1 2 6 12 5 4 3 14 17 31 
0 27 28 16 14 13 3 4 5 6 2 1 7 8 9 10 11 20 21 22 25 30 26 19 18 31 
0 18 19 26 30 25 24 22 21 20 11 10 9 8 7 1 2 6 5 4 3 14 16 17 31 
0 27 28 16 15 14 13 3 4 6 2 1 7 8 9 10 11 20 21 22 25 30 19 18 31 
0 18 19 26 30 25 24 22 21 20 11 10 9 8 7 1 2 6 12 5 4 3 14 17 31 
0 27 28 16 14 13 3 4 5 6 2 1 7 8 9 10 11 20 21 22 25 30 26 19 18 31 
0 18 19 26 30 25 24 22 21 20 11 10 9 8 7 1 2 6 5 4 3 14 16 17 31 
0 27 28 16 15 14 13 3 4 6 2 1 7 8 9 10 11 20 21 22 25 30 19 18 31 
0 27 28 16 14 13 3 4 5 6 2 1 7 8 9 10 11 20 21 22 25 30 26 19 18 31 
0 18 19 26 30 25 24 22 21 20 11 10 9 8 7 1 2 6 12 5 4 3 14 17 31 
0 18 19 26 30 25 24 22 21 20 11 10 9 8 7 1 2 6 5 4 3 14 16 17 31 
0 27 28 16 15 14 13 3 4 6 2 1 7 8 9 10 11 20 21 22 25 30 19 18 31 
0 27 28 16 14 13 3 4 5 6 2 1 7 8 9 10 11 20 21 22 25 30 26 19 18 31 
0 18 19 26 30 25 24 22 21 20 11 10 9 8 7 1 2 6 12 5 4 3 14 17 31 
0 18 19 26 30 25 24 22 21 20 11 10 9 8 7 1 2 6 5 4 3 14 16 17 31 
0 27 28 16 15 14 13 3 4 6 2 1 7 8 9 10 11 20 21 22 25 30 19 18 31 
0 27 28 16 14 13 3 4 5 6 2 1 7 8 9 10 11 20 21 22 25 30 26 19 18 31 
0 18 19 26 30 25 24 22 21 20 11 10 9 8 7 1 2 6 12 5 4 3 14 17 31 
0 18 19 26 30 25 24 22 21 20 11 10 9 7 8 12 1 2 6 5 4 3 14 17 31 
0 18 19 26 30 25 24 22 21 20 11 10 9 8 7 1 2 6 5 4 3 14 16 17 31 
0 27 28 16 15 14 13 3 4 6 2 1 7 8 9 10 11 20 21 22 25 30 19 18 31 
0 27 28 16 14 13 3 4 5 6 2 1 7 8 9 10 11 20 21 22 25 30 26 19 18 31 
0 18 19 26 30 25 24 22 21 20 11 10 9 8 7 1 2 6 12 5 4 3 14 17 31 
0 18 19 26 30 25 24 22 21 20 11 10 9 7 8 12 1 2 6 5 4 3 14 17 31 
0 18 19 26 30 25 24 22 21 20 11 10 9 8 7 1 2 6 5 4 3 14 16 17 31 
0 27 28 16 15 14 13 3 4 6 2 1 7 8 9 10 11 20 21 22 25 30 19 18 31 
0 18 19 26 30 25 24 22 21 20 11 10 9 8 7 1 2 6 12 5 4 3 14 17 31 
0 27 28 16 14 13 3 4 5 6 2 1 7 8 9 10 11 20 21 22 25 30 26 19 18 31 
0 18 19 26 30 25 24 22 21 20 11 10 9 7 8 12 1 2 6 5 4 3 14 17 31 
0 27 28 16 15 14 13 3 4 6 5 12 8 7 9 10 11 20 21 25 30 26 18 31 
0 27 28 16 15 14 13 3 4 5 6 2 1 7 9 10 11 20 21 25 30 26 18 31 
0 27 28 16 15 14 13 3 4 5 6 1 7 8 9 10 11 20 21 25 30 26 18 31 
0 27 28 16 14 13 3 4 5 6 2 1 7 8 9 10 11 20 21 22 25 30 26 19 18 31 
0 18 19 26 30 25 24 22 21 20 11 10 9 8 7 1 2 6 12 5 4 3 14 17 31 
0 18 19 26 30 25 24 22 21 20 11 10 9 7 8 12 1 2 6 5 4 3 14 17 31 
0 18 19 26 30 25 24 22 21 20 11 10 9 8 7 1 2 6 5 4 3 14 16 17 31 
0 27 28 16 15 14 13 3 4 6 2 1 7 8 9 10 11 20 21 22 25 30 19 18 31 
0 27 28 16 14 13 3 4 5 6 2 1 7 8 9 10 11 20 21 22 25 30 26 19 18 31 
0 18 19 26 30 25 24 22 21 20 11 10 9 8 7 1 2 6 12 5 4 3 14 17 31 
0 18 19 26 30 25 24 22 21 20 11 10 9 7 8 12 1 2 6 5 4 3 14 17 31 
0 18 19 26 30 25 24 22 21 20 11 10 9 8 7 1 2 6 5 4 3 14 16 17 31 
0 27 28 16 14 13 3 4 5 6 2 1 7 8 9 10 11 20 21 22 25 30 26 19 18 31 
0 18 19 26 30 25 24 22 21 20 11 10 9 7 8 12 1 2 6 5 4 3 14 17 31 
0 18 19 26 30 25 24 22 21 20 11 10 9 8 7 1 2 6 12 5 4 3 14 17 31 
0 18 19 26 30 25 24 22 21 20 11 10 9 8 7 1 2 6 5 4 3 14 16 17 31 
0 27 28 16 15 14 13 3 4 6 2 1 7 8 9 10 11 20 21 22 25 30 19 18 31 
0 27 28 16 14 13 3 4 5 6 2 1 7 8 9 10 11 20 21 22 25 30 26 19 18 31 
0 18 19 26 30 25 24 22 21 20 11 10 9 7 8 12 1 2 6 5 4 3 14 17 31 
0 18 19 26 30 25 24 22 21 20 11 10 9 8 7 1 2 6 12 5 4 3 14 17 31 
0 18 19 26 30 25 24 22 21 20 11 10 9 8 7 1 2 6 5 4 3 14 16 17 31 
0 27 28 16 14 13 3 4 5 6 2 1 7 8 9 10 11 20 21 22 25 30 26 19 18 31 
0 18 19 26 30 25 24 22 21 20 11 10 9 8 7 1 2 6 12 5 4 3 14 17 31 
0 18 19 26 30 25 24 22 21 20 11 10 9 7 8 12 1 2 6 5 4 3 14 17 31 
0 18 19 26 30 25 24 22 21 20 11 10 9 8 7 1 2 6 5 4 3 14 16 17 31 
0 27 28 16 14 13 3 4 5 6 2 1 7 8 9 10 11 20 21 22 25 30 26 19 18 31 
0 18 19 26 30 25 24 22 21 20 11 10 9 8 7 1 2 6 12 5 4 3 14 17 31 
0 18 19 26 30 25 24 22 21 20 11 10 9 7 8 12 1 2 6 5 4 3 14 17 31 
0 18 19 26 30 25 24 22 21 20 11 10 9 8 7 1 2 6 5 4 3 14 16 17 31 
0 27 28 16 15 14 13 3 4 6 2 1 7 8 9 10 11 20 21 22 25 30 19 18 31 
0 27 28 16 14 13 3 4 5 6 2 1 7 8 9 10 11 20 21 22 25 30 26 19 18 31 
0 18 19 26 30 25 24 22 21 20 11 10 9 8 7 1 2 6 12 5 4 3 14 17 31 
0 18 19 26 30 25 24 22 21 20 11 10 9 7 8 12 1 2 6 5 4 3 14 17 31 
0 18 19 26 30 25 24 22 21 20 11 10 9 8 7 1 2 6 5 4 3 14 16 17 31 
0 27 28 16 15 14 13 3 4 6 2 1 7 8 9 10 11 20 21 22 25 30 19 18 31 
